RAW/CMTY/fspd-mid/CMT9Y.vrp_seed-4.out
1160.682024	32.206	180.009
