RAW/CMTY/fspd-mid/CMT9Y.vrp_seed-4.sol
Route #1: 5 10 54 39 89 117 73 106 125 122
Route #2: 63 17 147 92 42 93 65 107 44 137 37
Route #3: 38 62 9 34 74 75 105 30 104 49 76
Route #4: 27 138 48 112 61 7 69 23 57 6 102 46
Route #5: 108 52 15 45 91 72 33 124 123 71 90 103
Route #6: 77 32 51 22 101 3 59 20 131 83 2 100
Route #7: 18 55 134 67 13 136 41 66 111 135 143
Route #8: 145 142 87 150 19 64 88 40 94 141 148
Route #9: 68 132 98 24 96 95 25 58 14 133 110
Route #10: 78 50 130 118 21 79 29 129 53 127 16 126 11
Route #11: 97 86 43 99 114 113 26 60
Route #12: 139 47 56 146 149 4 109 144 12
Route #13: 119 1 120 80 70 28 31 82 140 8 81
Route #14: 128 84 35 85 36 115 121 116
Cost 1160.682024